c FILE: i160-041

c SOURCE: From steinlib

c DESCRIPTION: Steinlib instance with 160 nodes and 2544 edges.

p edge 160 2544
e 1 7
e 1 9
e 1 12
e 1 14
e 1 26
e 1 27
e 1 45
e 1 47
e 1 48
e 1 60
e 1 62
e 1 69
e 1 70
e 1 73
e 1 77
e 1 79
e 1 86
e 1 88
e 1 92
e 1 98
e 1 101
e 1 109
e 1 116
e 1 122
e 1 126
e 1 131
e 1 135
e 1 143
e 1 144
e 1 156
e 2 20
e 2 21
e 2 27
e 2 31
e 2 33
e 2 37
e 2 38
e 2 40
e 2 46
e 2 53
e 2 58
e 2 60
e 2 61
e 2 70
e 2 88
e 2 99
e 2 105
e 2 108
e 2 112
e 2 115
e 2 123
e 2 131
e 2 132
e 2 134
e 2 135
e 2 136
e 2 148
e 2 153
e 2 154
e 2 158
e 3 7
e 3 10
e 3 19
e 3 28
e 3 34
e 3 35
e 3 36
e 3 43
e 3 47
e 3 57
e 3 59
e 3 69
e 3 70
e 3 71
e 3 80
e 3 89
e 3 94
e 3 97
e 3 109
e 3 111
e 3 117
e 3 119
e 3 121
e 3 124
e 3 125
e 3 128
e 3 134
e 3 144
e 3 145
e 3 155
e 3 156
e 3 158
e 4 11
e 4 12
e 4 13
e 4 17
e 4 22
e 4 26
e 4 29
e 4 31
e 4 36
e 4 41
e 4 45
e 4 47
e 4 53
e 4 54
e 4 58
e 4 60
e 4 73
e 4 76
e 4 78
e 4 90
e 4 96
e 4 97
e 4 101
e 4 106
e 4 108
e 4 109
e 4 119
e 4 128
e 4 134
e 4 139
e 4 141
e 4 147
e 4 149
e 5 7
e 5 11
e 5 12
e 5 16
e 5 21
e 5 24
e 5 25
e 5 32
e 5 33
e 5 39
e 5 41
e 5 42
e 5 48
e 5 53
e 5 57
e 5 65
e 5 71
e 5 78
e 5 85
e 5 89
e 5 94
e 5 111
e 5 118
e 5 126
e 5 128
e 5 132
e 5 133
e 5 143
e 5 145
e 5 148
e 5 149
e 5 150
e 5 153
e 5 157
e 5 158
e 5 160
e 6 16
e 6 18
e 6 27
e 6 33
e 6 38
e 6 39
e 6 43
e 6 52
e 6 53
e 6 55
e 6 70
e 6 75
e 6 80
e 6 81
e 6 82
e 6 85
e 6 91
e 6 100
e 6 107
e 6 109
e 6 111
e 6 120
e 6 130
e 6 131
e 6 134
e 6 135
e 6 141
e 6 143
e 6 145
e 6 151
e 7 13
e 7 15
e 7 18
e 7 27
e 7 28
e 7 29
e 7 32
e 7 33
e 7 34
e 7 35
e 7 37
e 7 43
e 7 48
e 7 51
e 7 52
e 7 59
e 7 64
e 7 69
e 7 74
e 7 76
e 7 79
e 7 81
e 7 90
e 7 91
e 7 93
e 7 96
e 7 97
e 7 102
e 7 113
e 7 116
e 7 123
e 7 126
e 7 129
e 7 142
e 7 151
e 7 158
e 7 159
e 8 9
e 8 13
e 8 15
e 8 23
e 8 25
e 8 26
e 8 30
e 8 34
e 8 37
e 8 39
e 8 40
e 8 42
e 8 50
e 8 58
e 8 59
e 8 61
e 8 62
e 8 67
e 8 68
e 8 69
e 8 70
e 8 76
e 8 81
e 8 96
e 8 100
e 8 105
e 8 114
e 8 115
e 8 128
e 8 130
e 8 136
e 8 149
e 8 150
e 9 11
e 9 15
e 9 19
e 9 22
e 9 27
e 9 30
e 9 34
e 9 38
e 9 39
e 9 53
e 9 55
e 9 57
e 9 58
e 9 59
e 9 75
e 9 80
e 9 82
e 9 90
e 9 97
e 9 106
e 9 110
e 9 117
e 9 118
e 9 128
e 9 139
e 9 147
e 9 149
e 9 150
e 9 156
e 10 11
e 10 12
e 10 20
e 10 28
e 10 40
e 10 46
e 10 51
e 10 56
e 10 57
e 10 64
e 10 68
e 10 83
e 10 84
e 10 89
e 10 94
e 10 97
e 10 109
e 10 113
e 10 116
e 10 119
e 10 126
e 10 128
e 10 136
e 10 144
e 10 146
e 10 149
e 10 152
e 10 154
e 10 159
e 11 20
e 11 28
e 11 39
e 11 41
e 11 45
e 11 50
e 11 58
e 11 61
e 11 68
e 11 72
e 11 78
e 11 83
e 11 87
e 11 93
e 11 95
e 11 104
e 11 107
e 11 111
e 11 128
e 11 136
e 11 143
e 11 145
e 11 146
e 11 147
e 11 151
e 11 159
e 12 13
e 12 14
e 12 19
e 12 25
e 12 32
e 12 34
e 12 35
e 12 38
e 12 53
e 12 55
e 12 56
e 12 62
e 12 67
e 12 68
e 12 81
e 12 84
e 12 95
e 12 97
e 12 98
e 12 99
e 12 102
e 12 104
e 12 105
e 12 110
e 12 112
e 12 113
e 12 114
e 12 119
e 12 125
e 12 126
e 12 134
e 12 138
e 12 140
e 12 143
e 12 146
e 12 147
e 12 148
e 12 154
e 12 156
e 12 160
e 13 18
e 13 24
e 13 26
e 13 47
e 13 49
e 13 51
e 13 53
e 13 65
e 13 68
e 13 70
e 13 82
e 13 83
e 13 85
e 13 90
e 13 94
e 13 95
e 13 98
e 13 100
e 13 114
e 13 122
e 13 123
e 13 128
e 13 129
e 13 132
e 13 134
e 13 147
e 13 150
e 13 155
e 13 158
e 14 15
e 14 17
e 14 20
e 14 23
e 14 27
e 14 32
e 14 34
e 14 35
e 14 51
e 14 52
e 14 54
e 14 56
e 14 63
e 14 69
e 14 73
e 14 74
e 14 75
e 14 82
e 14 90
e 14 96
e 14 97
e 14 110
e 14 112
e 14 124
e 14 126
e 14 138
e 14 141
e 14 146
e 14 152
e 15 20
e 15 26
e 15 30
e 15 32
e 15 52
e 15 53
e 15 67
e 15 74
e 15 75
e 15 78
e 15 79
e 15 82
e 15 94
e 15 95
e 15 98
e 15 100
e 15 107
e 15 112
e 15 115
e 15 118
e 15 122
e 15 128
e 15 129
e 15 138
e 15 139
e 15 142
e 15 145
e 15 146
e 15 150
e 15 155
e 15 157
e 15 160
e 16 18
e 16 23
e 16 24
e 16 28
e 16 31
e 16 33
e 16 36
e 16 41
e 16 44
e 16 54
e 16 59
e 16 80
e 16 85
e 16 86
e 16 93
e 16 99
e 16 100
e 16 102
e 16 105
e 16 113
e 16 115
e 16 126
e 16 130
e 16 133
e 16 135
e 16 137
e 16 138
e 16 150
e 16 153
e 16 156
e 16 157
e 16 159
e 17 24
e 17 30
e 17 38
e 17 42
e 17 50
e 17 52
e 17 58
e 17 68
e 17 77
e 17 79
e 17 81
e 17 86
e 17 87
e 17 90
e 17 92
e 17 103
e 17 105
e 17 110
e 17 121
e 17 130
e 17 141
e 17 144
e 17 147
e 17 153
e 17 154
e 17 156
e 17 157
e 17 159
e 18 22
e 18 32
e 18 39
e 18 47
e 18 51
e 18 53
e 18 58
e 18 62
e 18 65
e 18 71
e 18 72
e 18 75
e 18 82
e 18 92
e 18 100
e 18 110
e 18 117
e 18 130
e 18 133
e 18 137
e 19 20
e 19 23
e 19 31
e 19 33
e 19 35
e 19 39
e 19 51
e 19 56
e 19 66
e 19 72
e 19 76
e 19 82
e 19 90
e 19 94
e 19 98
e 19 104
e 19 128
e 19 133
e 19 140
e 19 141
e 19 146
e 19 148
e 19 152
e 19 155
e 20 24
e 20 28
e 20 29
e 20 32
e 20 34
e 20 36
e 20 49
e 20 59
e 20 61
e 20 62
e 20 72
e 20 85
e 20 87
e 20 95
e 20 98
e 20 114
e 20 115
e 20 117
e 20 120
e 20 130
e 20 140
e 20 141
e 20 146
e 20 148
e 20 151
e 20 156
e 21 26
e 21 27
e 21 30
e 21 37
e 21 38
e 21 45
e 21 53
e 21 56
e 21 68
e 21 72
e 21 73
e 21 76
e 21 84
e 21 85
e 21 91
e 21 92
e 21 100
e 21 102
e 21 103
e 21 107
e 21 116
e 21 138
e 21 145
e 21 150
e 21 155
e 21 156
e 21 159
e 22 24
e 22 25
e 22 34
e 22 43
e 22 45
e 22 50
e 22 52
e 22 57
e 22 71
e 22 76
e 22 80
e 22 82
e 22 86
e 22 87
e 22 90
e 22 91
e 22 92
e 22 93
e 22 95
e 22 107
e 22 120
e 22 127
e 22 130
e 22 139
e 22 141
e 22 147
e 22 152
e 22 160
e 23 30
e 23 39
e 23 41
e 23 43
e 23 45
e 23 60
e 23 65
e 23 72
e 23 74
e 23 81
e 23 84
e 23 85
e 23 89
e 23 90
e 23 91
e 23 94
e 23 96
e 23 97
e 23 102
e 23 103
e 23 107
e 23 108
e 23 125
e 23 126
e 23 133
e 23 136
e 23 142
e 23 150
e 23 155
e 23 159
e 23 160
e 24 33
e 24 35
e 24 39
e 24 45
e 24 52
e 24 55
e 24 56
e 24 59
e 24 63
e 24 64
e 24 65
e 24 74
e 24 78
e 24 81
e 24 84
e 24 85
e 24 90
e 24 91
e 24 107
e 24 116
e 24 119
e 24 124
e 24 125
e 24 139
e 24 143
e 24 148
e 24 149
e 25 28
e 25 30
e 25 39
e 25 43
e 25 58
e 25 72
e 25 73
e 25 81
e 25 82
e 25 83
e 25 96
e 25 99
e 25 101
e 25 112
e 25 115
e 25 120
e 25 121
e 25 133
e 25 146
e 25 155
e 25 158
e 25 159
e 25 160
e 26 44
e 26 45
e 26 52
e 26 54
e 26 57
e 26 61
e 26 69
e 26 70
e 26 76
e 26 77
e 26 79
e 26 89
e 26 93
e 26 94
e 26 119
e 26 130
e 26 143
e 26 145
e 26 150
e 26 152
e 26 157
e 27 44
e 27 49
e 27 55
e 27 64
e 27 74
e 27 76
e 27 79
e 27 86
e 27 88
e 27 94
e 27 96
e 27 97
e 27 110
e 27 111
e 27 113
e 27 116
e 27 127
e 27 129
e 27 130
e 27 132
e 27 141
e 27 142
e 27 143
e 27 144
e 27 147
e 27 150
e 27 152
e 27 160
e 28 32
e 28 35
e 28 36
e 28 44
e 28 46
e 28 52
e 28 55
e 28 57
e 28 62
e 28 79
e 28 81
e 28 84
e 28 109
e 28 113
e 28 114
e 28 122
e 28 126
e 28 128
e 28 130
e 28 133
e 28 149
e 28 151
e 28 154
e 29 36
e 29 44
e 29 54
e 29 55
e 29 58
e 29 60
e 29 65
e 29 73
e 29 75
e 29 80
e 29 81
e 29 82
e 29 92
e 29 102
e 29 103
e 29 108
e 29 111
e 29 113
e 29 115
e 29 123
e 29 127
e 29 150
e 29 152
e 29 155
e 29 159
e 30 31
e 30 34
e 30 36
e 30 37
e 30 44
e 30 46
e 30 47
e 30 50
e 30 56
e 30 57
e 30 83
e 30 86
e 30 92
e 30 97
e 30 116
e 30 143
e 30 151
e 30 157
e 31 37
e 31 40
e 31 47
e 31 50
e 31 52
e 31 57
e 31 59
e 31 60
e 31 66
e 31 70
e 31 71
e 31 84
e 31 85
e 31 88
e 31 89
e 31 90
e 31 98
e 31 102
e 31 106
e 31 108
e 31 112
e 31 114
e 31 123
e 31 128
e 31 129
e 31 135
e 31 137
e 31 138
e 31 142
e 31 143
e 31 147
e 31 153
e 31 157
e 32 37
e 32 47
e 32 51
e 32 53
e 32 57
e 32 64
e 32 67
e 32 68
e 32 71
e 32 73
e 32 84
e 32 85
e 32 94
e 32 101
e 32 108
e 32 109
e 32 111
e 32 114
e 32 117
e 32 118
e 32 127
e 32 130
e 32 132
e 32 144
e 32 146
e 32 147
e 32 153
e 32 158
e 32 159
e 33 38
e 33 43
e 33 48
e 33 49
e 33 51
e 33 52
e 33 57
e 33 66
e 33 72
e 33 82
e 33 89
e 33 92
e 33 93
e 33 98
e 33 109
e 33 110
e 33 111
e 33 120
e 33 124
e 33 126
e 33 131
e 33 134
e 33 136
e 33 140
e 33 145
e 33 150
e 33 156
e 33 157
e 33 158
e 34 43
e 34 49
e 34 50
e 34 66
e 34 67
e 34 68
e 34 83
e 34 98
e 34 100
e 34 103
e 34 115
e 34 117
e 34 118
e 34 128
e 34 130
e 34 140
e 34 142
e 34 150
e 34 156
e 34 160
e 35 38
e 35 40
e 35 41
e 35 47
e 35 49
e 35 50
e 35 54
e 35 56
e 35 57
e 35 63
e 35 71
e 35 78
e 35 81
e 35 88
e 35 105
e 35 111
e 35 115
e 35 118
e 35 121
e 35 129
e 35 144
e 35 145
e 35 147
e 35 149
e 35 159
e 36 37
e 36 39
e 36 46
e 36 47
e 36 48
e 36 50
e 36 53
e 36 55
e 36 64
e 36 67
e 36 78
e 36 85
e 36 96
e 36 99
e 36 102
e 36 115
e 36 116
e 36 117
e 36 120
e 36 121
e 36 135
e 36 145
e 36 146
e 37 38
e 37 50
e 37 52
e 37 59
e 37 65
e 37 66
e 37 69
e 37 76
e 37 82
e 37 88
e 37 89
e 37 92
e 37 93
e 37 94
e 37 99
e 37 100
e 37 102
e 37 110
e 37 111
e 37 112
e 37 121
e 37 123
e 37 124
e 37 126
e 37 133
e 37 137
e 37 148
e 37 149
e 37 157
e 37 159
e 38 40
e 38 48
e 38 51
e 38 52
e 38 74
e 38 78
e 38 80
e 38 83
e 38 84
e 38 94
e 38 96
e 38 97
e 38 103
e 38 108
e 38 120
e 38 121
e 38 123
e 38 128
e 38 129
e 38 130
e 38 131
e 38 144
e 38 146
e 38 148
e 38 154
e 39 40
e 39 41
e 39 44
e 39 46
e 39 48
e 39 49
e 39 52
e 39 55
e 39 59
e 39 62
e 39 63
e 39 64
e 39 67
e 39 69
e 39 76
e 39 80
e 39 91
e 39 94
e 39 97
e 39 99
e 39 100
e 39 101
e 39 116
e 39 121
e 39 133
e 39 135
e 39 145
e 39 149
e 39 150
e 39 151
e 40 41
e 40 43
e 40 44
e 40 53
e 40 57
e 40 63
e 40 65
e 40 69
e 40 75
e 40 77
e 40 84
e 40 105
e 40 106
e 40 107
e 40 109
e 40 112
e 40 113
e 40 114
e 40 117
e 40 121
e 40 125
e 40 126
e 40 132
e 40 134
e 40 136
e 40 137
e 41 42
e 41 51
e 41 56
e 41 65
e 41 66
e 41 67
e 41 75
e 41 82
e 41 83
e 41 89
e 41 97
e 41 98
e 41 104
e 41 114
e 41 118
e 41 119
e 41 120
e 41 127
e 41 132
e 41 146
e 41 151
e 41 155
e 42 48
e 42 60
e 42 63
e 42 75
e 42 79
e 42 80
e 42 82
e 42 85
e 42 91
e 42 94
e 42 99
e 42 101
e 42 103
e 42 106
e 42 110
e 42 121
e 42 123
e 42 132
e 42 133
e 42 135
e 42 137
e 42 140
e 42 147
e 42 150
e 42 155
e 43 44
e 43 50
e 43 54
e 43 59
e 43 64
e 43 75
e 43 78
e 43 83
e 43 95
e 43 97
e 43 101
e 43 109
e 43 111
e 43 112
e 43 113
e 43 114
e 43 118
e 43 119
e 43 130
e 43 135
e 43 136
e 43 157
e 43 160
e 44 50
e 44 56
e 44 58
e 44 59
e 44 60
e 44 61
e 44 63
e 44 67
e 44 71
e 44 72
e 44 83
e 44 86
e 44 93
e 44 95
e 44 96
e 44 97
e 44 101
e 44 102
e 44 103
e 44 106
e 44 108
e 44 112
e 44 121
e 44 126
e 44 130
e 44 138
e 44 145
e 44 147
e 44 150
e 45 46
e 45 55
e 45 57
e 45 74
e 45 79
e 45 81
e 45 84
e 45 86
e 45 90
e 45 95
e 45 107
e 45 116
e 45 122
e 45 124
e 45 130
e 45 139
e 45 142
e 45 148
e 45 154
e 45 156
e 45 160
e 46 51
e 46 61
e 46 63
e 46 66
e 46 67
e 46 69
e 46 71
e 46 72
e 46 81
e 46 85
e 46 91
e 46 97
e 46 100
e 46 103
e 46 110
e 46 112
e 46 114
e 46 115
e 46 116
e 46 149
e 46 154
e 46 156
e 46 157
e 46 160
e 47 51
e 47 57
e 47 61
e 47 70
e 47 74
e 47 77
e 47 84
e 47 86
e 47 90
e 47 92
e 47 103
e 47 114
e 47 118
e 47 121
e 47 128
e 47 132
e 47 144
e 47 154
e 47 158
e 47 160
e 48 52
e 48 68
e 48 69
e 48 71
e 48 77
e 48 83
e 48 88
e 48 89
e 48 94
e 48 99
e 48 112
e 48 113
e 48 115
e 48 116
e 48 131
e 48 133
e 48 138
e 48 141
e 48 142
e 48 152
e 48 153
e 49 56
e 49 62
e 49 65
e 49 73
e 49 77
e 49 81
e 49 85
e 49 91
e 49 93
e 49 99
e 49 100
e 49 102
e 49 109
e 49 113
e 49 116
e 49 128
e 49 132
e 49 143
e 49 150
e 50 58
e 50 61
e 50 65
e 50 69
e 50 77
e 50 82
e 50 84
e 50 89
e 50 100
e 50 101
e 50 104
e 50 108
e 50 126
e 50 128
e 50 130
e 50 134
e 50 139
e 50 140
e 50 141
e 50 153
e 50 155
e 50 158
e 51 53
e 51 54
e 51 56
e 51 59
e 51 63
e 51 75
e 51 76
e 51 79
e 51 85
e 51 88
e 51 91
e 51 99
e 51 103
e 51 114
e 51 121
e 51 122
e 51 123
e 51 126
e 51 132
e 51 138
e 51 139
e 51 145
e 51 154
e 52 54
e 52 58
e 52 60
e 52 67
e 52 68
e 52 84
e 52 88
e 52 94
e 52 98
e 52 103
e 52 108
e 52 109
e 52 119
e 52 121
e 52 124
e 52 125
e 52 128
e 52 129
e 52 130
e 52 133
e 52 134
e 52 135
e 52 136
e 52 145
e 52 154
e 53 54
e 53 57
e 53 59
e 53 61
e 53 66
e 53 67
e 53 70
e 53 74
e 53 86
e 53 95
e 53 98
e 53 111
e 53 119
e 53 121
e 53 122
e 53 134
e 53 140
e 53 141
e 53 144
e 53 145
e 53 152
e 53 158
e 54 56
e 54 57
e 54 66
e 54 73
e 54 80
e 54 84
e 54 106
e 54 119
e 54 120
e 54 123
e 54 125
e 54 135
e 54 137
e 54 142
e 54 151
e 54 152
e 54 155
e 54 157
e 54 160
e 55 62
e 55 78
e 55 79
e 55 93
e 55 94
e 55 99
e 55 113
e 55 114
e 55 115
e 55 122
e 55 134
e 55 140
e 55 141
e 56 63
e 56 66
e 56 67
e 56 68
e 56 69
e 56 78
e 56 87
e 56 88
e 56 89
e 56 93
e 56 96
e 56 98
e 56 99
e 56 100
e 56 103
e 56 108
e 56 113
e 56 114
e 56 122
e 56 125
e 56 128
e 56 131
e 56 132
e 56 134
e 56 135
e 56 143
e 56 154
e 56 156
e 57 58
e 57 67
e 57 69
e 57 73
e 57 78
e 57 80
e 57 89
e 57 90
e 57 100
e 57 107
e 57 108
e 57 109
e 57 110
e 57 113
e 57 114
e 57 118
e 57 121
e 57 131
e 57 139
e 57 158
e 58 59
e 58 68
e 58 77
e 58 79
e 58 82
e 58 85
e 58 91
e 58 98
e 58 106
e 58 110
e 58 114
e 58 115
e 58 124
e 58 129
e 58 134
e 58 135
e 58 137
e 58 140
e 58 141
e 58 149
e 59 63
e 59 64
e 59 66
e 59 67
e 59 73
e 59 75
e 59 78
e 59 81
e 59 84
e 59 88
e 59 93
e 59 95
e 59 100
e 59 105
e 59 110
e 59 118
e 59 142
e 59 144
e 59 147
e 60 61
e 60 62
e 60 68
e 60 71
e 60 73
e 60 77
e 60 81
e 60 83
e 60 88
e 60 89
e 60 90
e 60 96
e 60 103
e 60 104
e 60 112
e 60 121
e 60 123
e 60 137
e 60 140
e 60 142
e 60 143
e 60 146
e 60 151
e 60 155
e 60 157
e 60 158
e 61 67
e 61 73
e 61 74
e 61 76
e 61 77
e 61 85
e 61 93
e 61 94
e 61 95
e 61 99
e 61 101
e 61 105
e 61 110
e 61 116
e 61 117
e 61 120
e 61 122
e 61 134
e 61 140
e 61 141
e 61 142
e 61 148
e 61 149
e 61 160
e 62 63
e 62 76
e 62 79
e 62 83
e 62 84
e 62 91
e 62 97
e 62 99
e 62 100
e 62 102
e 62 104
e 62 106
e 62 109
e 62 112
e 62 120
e 62 123
e 62 125
e 62 129
e 62 137
e 62 145
e 62 147
e 62 148
e 62 153
e 62 156
e 62 158
e 63 72
e 63 86
e 63 87
e 63 88
e 63 94
e 63 95
e 63 98
e 63 111
e 63 121
e 63 125
e 63 134
e 63 135
e 63 142
e 63 151
e 63 155
e 63 157
e 63 159
e 64 65
e 64 72
e 64 74
e 64 75
e 64 81
e 64 82
e 64 84
e 64 86
e 64 94
e 64 102
e 64 103
e 64 107
e 64 111
e 64 112
e 64 117
e 64 118
e 64 121
e 64 122
e 64 124
e 64 132
e 64 133
e 64 138
e 64 152
e 64 156
e 64 158
e 65 67
e 65 69
e 65 70
e 65 88
e 65 94
e 65 99
e 65 100
e 65 110
e 65 113
e 65 114
e 65 130
e 65 141
e 65 144
e 65 147
e 65 149
e 65 152
e 65 153
e 65 157
e 65 159
e 66 80
e 66 87
e 66 92
e 66 93
e 66 101
e 66 106
e 66 109
e 66 115
e 66 116
e 66 119
e 66 120
e 66 128
e 66 134
e 66 136
e 66 137
e 66 138
e 66 144
e 66 147
e 66 149
e 66 158
e 66 159
e 67 83
e 67 84
e 67 86
e 67 87
e 67 88
e 67 90
e 67 111
e 67 119
e 67 120
e 67 121
e 67 129
e 67 134
e 67 144
e 67 153
e 67 157
e 67 160
e 68 70
e 68 71
e 68 80
e 68 88
e 68 89
e 68 104
e 68 106
e 68 108
e 68 122
e 68 134
e 68 143
e 68 157
e 69 74
e 69 81
e 69 86
e 69 87
e 69 94
e 69 117
e 69 120
e 69 126
e 69 131
e 69 139
e 69 143
e 69 144
e 69 149
e 69 156
e 70 71
e 70 72
e 70 76
e 70 78
e 70 81
e 70 85
e 70 91
e 70 97
e 70 100
e 70 103
e 70 104
e 70 113
e 70 114
e 70 125
e 70 128
e 70 130
e 70 134
e 70 138
e 70 139
e 70 145
e 70 147
e 70 151
e 70 159
e 71 75
e 71 81
e 71 87
e 71 91
e 71 99
e 71 105
e 71 106
e 71 111
e 71 116
e 71 128
e 71 137
e 71 140
e 71 147
e 71 148
e 71 149
e 71 152
e 72 75
e 72 78
e 72 82
e 72 91
e 72 92
e 72 93
e 72 101
e 72 118
e 72 126
e 72 127
e 72 135
e 72 140
e 72 143
e 72 149
e 72 152
e 72 153
e 72 157
e 73 74
e 73 76
e 73 77
e 73 80
e 73 85
e 73 89
e 73 90
e 73 93
e 73 100
e 73 106
e 73 109
e 73 119
e 73 123
e 73 125
e 73 137
e 73 145
e 73 153
e 73 154
e 73 157
e 74 76
e 74 78
e 74 83
e 74 92
e 74 103
e 74 105
e 74 107
e 74 109
e 74 114
e 74 122
e 74 135
e 74 136
e 74 140
e 74 141
e 74 149
e 74 155
e 75 77
e 75 79
e 75 80
e 75 83
e 75 89
e 75 90
e 75 91
e 75 93
e 75 96
e 75 102
e 75 104
e 75 107
e 75 115
e 75 116
e 75 119
e 75 123
e 75 125
e 75 126
e 75 129
e 75 131
e 75 135
e 75 138
e 75 142
e 75 148
e 75 150
e 75 152
e 76 77
e 76 80
e 76 94
e 76 128
e 76 129
e 76 133
e 76 134
e 76 141
e 76 143
e 76 147
e 76 154
e 76 156
e 77 86
e 77 87
e 77 92
e 77 96
e 77 99
e 77 102
e 77 112
e 77 117
e 77 118
e 77 123
e 77 137
e 77 144
e 77 145
e 77 149
e 77 151
e 78 79
e 78 83
e 78 84
e 78 87
e 78 90
e 78 94
e 78 95
e 78 102
e 78 106
e 78 109
e 78 110
e 78 114
e 78 125
e 78 131
e 78 133
e 78 143
e 78 145
e 78 151
e 78 152
e 78 153
e 78 155
e 79 80
e 79 87
e 79 97
e 79 108
e 79 109
e 79 132
e 79 136
e 79 137
e 79 148
e 79 149
e 79 151
e 79 154
e 79 159
e 80 82
e 80 85
e 80 86
e 80 88
e 80 90
e 80 91
e 80 95
e 80 101
e 80 102
e 80 110
e 80 113
e 80 114
e 80 117
e 80 120
e 80 121
e 80 122
e 80 124
e 80 127
e 80 139
e 80 143
e 80 144
e 80 155
e 80 156
e 80 159
e 81 84
e 81 94
e 81 105
e 81 109
e 81 111
e 81 115
e 81 121
e 81 125
e 81 137
e 81 140
e 81 151
e 81 159
e 82 96
e 82 101
e 82 102
e 82 106
e 82 109
e 82 111
e 82 113
e 82 119
e 82 120
e 82 128
e 82 131
e 82 134
e 82 151
e 82 154
e 82 158
e 83 87
e 83 92
e 83 109
e 83 111
e 83 116
e 83 117
e 83 118
e 83 122
e 83 123
e 83 127
e 83 129
e 83 133
e 83 139
e 83 143
e 83 149
e 83 151
e 83 154
e 84 87
e 84 91
e 84 97
e 84 105
e 84 113
e 84 123
e 84 127
e 84 129
e 84 137
e 84 138
e 84 140
e 84 152
e 85 86
e 85 87
e 85 101
e 85 102
e 85 104
e 85 112
e 85 120
e 85 121
e 85 123
e 85 127
e 85 136
e 85 145
e 85 153
e 85 158
e 85 160
e 86 93
e 86 102
e 86 109
e 86 115
e 86 129
e 86 131
e 86 139
e 86 143
e 86 148
e 86 152
e 86 155
e 86 159
e 87 88
e 87 90
e 87 104
e 87 111
e 87 115
e 87 117
e 87 123
e 87 124
e 87 127
e 87 130
e 87 143
e 87 144
e 87 150
e 87 151
e 87 154
e 88 92
e 88 97
e 88 99
e 88 105
e 88 115
e 88 137
e 88 138
e 88 149
e 88 150
e 88 160
e 89 95
e 89 111
e 89 114
e 89 115
e 89 117
e 89 130
e 89 134
e 89 136
e 89 145
e 89 148
e 89 153
e 90 93
e 90 96
e 90 98
e 90 103
e 90 109
e 90 114
e 90 115
e 90 126
e 90 137
e 90 144
e 90 145
e 90 151
e 90 152
e 90 160
e 91 94
e 91 101
e 91 102
e 91 103
e 91 110
e 91 122
e 91 124
e 91 129
e 91 145
e 91 156
e 92 99
e 92 102
e 92 119
e 92 128
e 92 129
e 92 137
e 92 145
e 92 146
e 92 151
e 92 153
e 93 94
e 93 100
e 93 101
e 93 116
e 93 119
e 93 127
e 93 137
e 93 152
e 93 153
e 93 154
e 93 155
e 93 159
e 94 98
e 94 104
e 94 112
e 94 113
e 94 125
e 94 138
e 94 139
e 94 140
e 94 145
e 94 147
e 94 148
e 94 150
e 94 158
e 94 159
e 94 160
e 95 96
e 95 104
e 95 112
e 95 113
e 95 118
e 95 135
e 95 139
e 95 143
e 95 150
e 95 152
e 95 156
e 96 97
e 96 103
e 96 104
e 96 106
e 96 107
e 96 111
e 96 125
e 96 126
e 96 129
e 96 133
e 96 137
e 96 141
e 96 143
e 96 147
e 96 149
e 96 155
e 96 156
e 96 158
e 97 110
e 97 126
e 97 132
e 97 141
e 97 142
e 97 143
e 97 153
e 97 156
e 97 159
e 98 105
e 98 117
e 98 124
e 98 143
e 98 145
e 98 148
e 98 154
e 98 155
e 99 117
e 99 119
e 99 124
e 99 126
e 99 133
e 99 142
e 99 149
e 99 154
e 99 155
e 100 101
e 100 102
e 100 103
e 100 111
e 100 112
e 100 114
e 100 117
e 100 119
e 100 121
e 100 128
e 100 129
e 100 131
e 100 135
e 100 145
e 100 151
e 100 155
e 100 158
e 100 160
e 101 103
e 101 114
e 101 124
e 101 128
e 101 131
e 101 134
e 101 139
e 101 141
e 101 153
e 101 155
e 101 158
e 101 159
e 102 106
e 102 115
e 102 116
e 102 121
e 102 125
e 102 135
e 102 136
e 102 139
e 102 140
e 102 142
e 102 150
e 102 151
e 102 155
e 102 157
e 103 105
e 103 110
e 103 112
e 103 122
e 103 126
e 103 128
e 103 133
e 103 134
e 103 139
e 103 140
e 103 141
e 103 150
e 104 112
e 104 115
e 104 118
e 104 123
e 104 127
e 104 131
e 104 145
e 104 146
e 104 147
e 104 158
e 104 159
e 105 110
e 105 112
e 105 114
e 105 122
e 105 123
e 105 124
e 105 128
e 105 133
e 105 139
e 105 141
e 105 142
e 105 143
e 105 146
e 105 149
e 105 151
e 105 155
e 106 108
e 106 114
e 106 117
e 106 128
e 106 131
e 106 140
e 106 156
e 107 110
e 107 112
e 107 113
e 107 121
e 107 123
e 107 131
e 107 136
e 107 143
e 107 149
e 108 111
e 108 122
e 108 123
e 108 128
e 108 129
e 108 132
e 108 134
e 108 137
e 108 147
e 108 150
e 108 157
e 109 117
e 109 125
e 109 126
e 109 128
e 109 133
e 109 136
e 109 142
e 109 144
e 109 145
e 109 146
e 109 147
e 109 148
e 109 152
e 109 159
e 110 117
e 110 118
e 110 129
e 110 130
e 110 143
e 110 148
e 110 154
e 110 157
e 110 159
e 111 113
e 111 124
e 111 128
e 111 132
e 111 138
e 111 140
e 111 150
e 111 155
e 111 157
e 112 113
e 112 116
e 112 122
e 112 123
e 112 126
e 112 132
e 112 141
e 112 144
e 112 147
e 112 156
e 112 160
e 113 117
e 113 119
e 113 124
e 113 132
e 113 134
e 113 136
e 113 143
e 113 144
e 113 147
e 113 149
e 113 159
e 114 122
e 114 126
e 114 128
e 114 132
e 114 136
e 114 153
e 114 155
e 115 118
e 115 119
e 115 123
e 115 128
e 115 129
e 115 130
e 115 149
e 115 155
e 116 124
e 116 127
e 116 128
e 116 133
e 116 144
e 116 147
e 116 150
e 116 155
e 116 157
e 116 159
e 117 119
e 117 121
e 117 123
e 117 125
e 117 127
e 117 134
e 117 139
e 117 140
e 117 147
e 117 150
e 117 154
e 117 156
e 118 120
e 118 143
e 118 145
e 118 152
e 118 158
e 118 159
e 119 123
e 119 124
e 119 128
e 119 138
e 119 139
e 119 140
e 119 141
e 119 146
e 119 158
e 119 159
e 120 121
e 120 125
e 120 129
e 120 134
e 120 141
e 120 143
e 120 155
e 120 159
e 121 127
e 121 133
e 121 134
e 121 138
e 121 139
e 121 143
e 121 144
e 121 159
e 122 123
e 122 127
e 122 128
e 122 129
e 122 134
e 122 137
e 122 139
e 122 153
e 122 154
e 123 130
e 123 134
e 123 144
e 123 154
e 123 160
e 124 125
e 124 130
e 124 132
e 124 135
e 124 139
e 124 146
e 124 147
e 124 150
e 124 153
e 124 155
e 124 157
e 124 160
e 125 128
e 125 150
e 125 153
e 126 127
e 126 129
e 126 130
e 126 133
e 126 139
e 126 143
e 126 144
e 126 145
e 126 146
e 126 152
e 127 129
e 127 130
e 127 131
e 127 132
e 127 146
e 127 147
e 128 133
e 128 138
e 128 141
e 128 142
e 128 143
e 128 145
e 128 148
e 128 157
e 129 134
e 129 140
e 129 156
e 129 157
e 129 158
e 130 131
e 130 137
e 130 140
e 130 148
e 130 159
e 130 160
e 131 137
e 131 141
e 131 146
e 131 150
e 131 155
e 131 159
e 131 160
e 132 135
e 132 137
e 132 142
e 132 145
e 132 148
e 132 152
e 133 137
e 133 144
e 133 147
e 133 148
e 133 153
e 133 159
e 134 143
e 134 147
e 135 140
e 135 146
e 135 158
e 136 141
e 136 153
e 136 156
e 136 160
e 137 142
e 137 144
e 137 146
e 137 151
e 137 155
e 137 157
e 137 159
e 137 160
e 138 155
e 138 159
e 139 143
e 139 145
e 139 153
e 139 158
e 140 144
e 140 154
e 141 146
e 142 145
e 142 150
e 142 152
e 143 145
e 143 159
e 144 145
e 145 148
e 145 154
e 145 156
e 146 153
e 146 155
e 147 148
e 147 150
e 148 153
e 149 151
e 149 156
e 149 160
e 150 151
e 150 154
e 151 160
e 152 154
e 153 154
e 154 159
e 156 159
e 157 159
